p cnf 192 862
119 127 0
62 67 94 131 0
58 92 116 0
82 136 0
103 109 110 0
121 144 148 0
102 153 0
91 111 156 160 0
125 130 0
107 112 0
60 68 96 133 0
81 83 108 0
79 105 115 0
75 77 146 0
74 89 98 158 0
122 187 0
73 124 128 0
72 86 113 126 0
61 63 65 66 70 95 0
114 117 132 135 0
84 137 0
138 140 142 0
120 145 149 151 0
152 154 155 0
90 99 157 161 163 0
165 166 167 0
170 171 0
172 191 0
173 174 175 176 177 0
71 87 0
59 64 85 97 134 178 0
93 118 180 182 0
106 141 143 0
76 78 147 150 0
183 184 0
88 100 159 162 164 0
168 186 0
123 129 188 189 0
-109 -190 0
-109 -111 0
-101 -109 0
-111 -190 0
-101 -190 0
-101 -111 0
-107 -192 0
-96 -192 0
-179 -192 0
-96 -107 0
-107 -179 0
-96 -179 0
-57 -105 0
-89 -105 0
-105 -185 0
-57 -89 0
-57 -185 0
-89 -185 0
-126 -128 0
-70 -128 0
-128 -132 0
-70 -126 0
-126 -132 0
-70 -132 0
-109 -192 0
-105 -109 0
-109 -128 0
-105 -192 0
-128 -192 0
-105 -128 0
-107 -190 0
-57 -190 0
-126 -190 0
-57 -107 0
-107 -126 0
-57 -126 0
-96 -111 0
-89 -111 0
-70 -111 0
-89 -96 0
-70 -96 0
-70 -89 0
-101 -179 0
-101 -185 0
-101 -132 0
-179 -185 0
-132 -179 0
-132 -185 0
-55 -56 0
-56 -94 0
-56 -58 0
-56 -136 0
-56 -139 0
-55 -94 0
-55 -58 0
-55 -136 0
-55 -139 0
-58 -94 0
-94 -136 0
-94 -139 0
-58 -136 0
-58 -139 0
-136 -139 0
-103 -121 0
-91 -103 0
-53 -103 0
-103 -169 0
-52 -103 0
-91 -121 0
-53 -121 0
-121 -169 0
-52 -121 0
-53 -91 0
-91 -169 0
-52 -91 0
-53 -169 0
-52 -53 0
-52 -169 0
-115 -146 0
-115 -158 0
-50 -115 0
-49 -115 0
-115 -187 0
-146 -158 0
-50 -146 0
-49 -146 0
-146 -187 0
-50 -158 0
-49 -158 0
-158 -187 0
-49 -50 0
-50 -187 0
-49 -187 0
-47 -73 0
-65 -73 0
-73 -135 0
-73 -84 0
-73 -138 0
-47 -65 0
-47 -135 0
-47 -84 0
-47 -138 0
-65 -135 0
-65 -84 0
-65 -138 0
-84 -135 0
-135 -138 0
-84 -138 0
-173 -191 0
-97 -191 0
-180 -191 0
-46 -191 0
-141 -191 0
-97 -173 0
-173 -180 0
-46 -173 0
-141 -173 0
-97 -180 0
-46 -97 0
-97 -141 0
-46 -180 0
-141 -180 0
-46 -141 0
-78 -104 0
-88 -104 0
-104 -186 0
-45 -104 0
-104 -123 0
-78 -88 0
-78 -186 0
-45 -78 0
-78 -123 0
-88 -186 0
-45 -88 0
-88 -123 0
-45 -186 0
-123 -186 0
-45 -123 0
-56 -103 0
-56 -115 0
-56 -73 0
-56 -191 0
-56 -104 0
-103 -115 0
-73 -103 0
-103 -191 0
-103 -104 0
-73 -115 0
-115 -191 0
-104 -115 0
-73 -191 0
-73 -104 0
-104 -191 0
-55 -121 0
-55 -146 0
-47 -55 0
-55 -173 0
-55 -78 0
-121 -146 0
-47 -121 0
-121 -173 0
-78 -121 0
-47 -146 0
-146 -173 0
-78 -146 0
-47 -173 0
-47 -78 0
-78 -173 0
-91 -94 0
-94 -158 0
-65 -94 0
-94 -97 0
-88 -94 0
-91 -158 0
-65 -91 0
-91 -97 0
-88 -91 0
-65 -158 0
-97 -158 0
-88 -158 0
-65 -97 0
-65 -88 0
-88 -97 0
-53 -58 0
-50 -58 0
-58 -135 0
-58 -180 0
-58 -186 0
-50 -53 0
-53 -135 0
-53 -180 0
-53 -186 0
-50 -135 0
-50 -180 0
-50 -186 0
-135 -180 0
-135 -186 0
-180 -186 0
-136 -169 0
-49 -136 0
-84 -136 0
-46 -136 0
-45 -136 0
-49 -169 0
-84 -169 0
-46 -169 0
-45 -169 0
-49 -84 0
-46 -49 0
-45 -49 0
-46 -84 0
-45 -84 0
-45 -46 0
-52 -139 0
-139 -187 0
-138 -139 0
-139 -141 0
-123 -139 0
-52 -187 0
-52 -138 0
-52 -141 0
-52 -123 0
-138 -187 0
-141 -187 0
-123 -187 0
-138 -141 0
-123 -138 0
-123 -141 0
-144 -153 0
-44 -144 0
-144 -156 0
-42 -144 0
-41 -144 0
-44 -153 0
-153 -156 0
-42 -153 0
-41 -153 0
-44 -156 0
-42 -44 0
-41 -44 0
-42 -156 0
-41 -156 0
-41 -42 0
-39 -130 0
-112 -130 0
-68 -130 0
-83 -130 0
-38 -130 0
-39 -112 0
-39 -68 0
-39 -83 0
-38 -39 0
-68 -112 0
-83 -112 0
-38 -112 0
-68 -83 0
-38 -68 0
-38 -83 0
-37 -54 0
-54 -113 0
-54 -95 0
-54 -137 0
-54 -140 0
-37 -113 0
-37 -95 0
-37 -137 0
-37 -140 0
-95 -113 0
-113 -137 0
-113 -140 0
-95 -137 0
-95 -140 0
-137 -140 0
-120 -152 0
-36 -120 0
-90 -120 0
-120 -170 0
-51 -120 0
-36 -152 0
-90 -152 0
-152 -170 0
-51 -152 0
-36 -90 0
-36 -170 0
-36 -51 0
-90 -170 0
-51 -90 0
-51 -170 0
-35 -174 0
-87 -174 0
-64 -174 0
-34 -174 0
-143 -174 0
-35 -87 0
-35 -64 0
-34 -35 0
-35 -143 0
-64 -87 0
-34 -87 0
-87 -143 0
-34 -64 0
-64 -143 0
-34 -143 0
-33 -147 0
-147 -183 0
-147 -159 0
-48 -147 0
-147 -188 0
-33 -183 0
-33 -159 0
-33 -48 0
-33 -188 0
-159 -183 0
-48 -183 0
-183 -188 0
-48 -159 0
-159 -188 0
-48 -188 0
-130 -144 0
-54 -144 0
-120 -144 0
-144 -174 0
-144 -147 0
-54 -130 0
-120 -130 0
-130 -174 0
-130 -147 0
-54 -120 0
-54 -174 0
-54 -147 0
-120 -174 0
-120 -147 0
-147 -174 0
-39 -153 0
-37 -153 0
-152 -153 0
-35 -153 0
-33 -153 0
-37 -39 0
-39 -152 0
-35 -39 0
-33 -39 0
-37 -152 0
-35 -37 0
-33 -37 0
-35 -152 0
-33 -152 0
-33 -35 0
-44 -112 0
-44 -113 0
-36 -44 0
-44 -87 0
-44 -183 0
-112 -113 0
-36 -112 0
-87 -112 0
-112 -183 0
-36 -113 0
-87 -113 0
-113 -183 0
-36 -87 0
-36 -183 0
-87 -183 0
-68 -156 0
-95 -156 0
-90 -156 0
-64 -156 0
-156 -159 0
-68 -95 0
-68 -90 0
-64 -68 0
-68 -159 0
-90 -95 0
-64 -95 0
-95 -159 0
-64 -90 0
-90 -159 0
-64 -159 0
-42 -83 0
-42 -137 0
-42 -170 0
-34 -42 0
-42 -48 0
-83 -137 0
-83 -170 0
-34 -83 0
-48 -83 0
-137 -170 0
-34 -137 0
-48 -137 0
-34 -170 0
-48 -170 0
-34 -48 0
-38 -41 0
-41 -140 0
-41 -51 0
-41 -143 0
-41 -188 0
-38 -140 0
-38 -51 0
-38 -143 0
-38 -188 0
-51 -140 0
-140 -143 0
-140 -188 0
-51 -143 0
-51 -188 0
-143 -188 0
-31 -32 0
-32 -119 0
-29 -32 0
-32 -67 0
-28 -32 0
-31 -119 0
-29 -31 0
-31 -67 0
-28 -31 0
-29 -119 0
-67 -119 0
-28 -119 0
-29 -67 0
-28 -29 0
-28 -67 0
-110 -148 0
-102 -110 0
-27 -110 0
-110 -160 0
-26 -110 0
-102 -148 0
-27 -148 0
-148 -160 0
-26 -148 0
-27 -102 0
-102 -160 0
-26 -102 0
-27 -160 0
-26 -27 0
-26 -160 0
-77 -79 0
-25 -79 0
-24 -79 0
-74 -79 0
-79 -122 0
-25 -77 0
-24 -77 0
-74 -77 0
-77 -122 0
-24 -25 0
-25 -74 0
-25 -122 0
-24 -74 0
-24 -122 0
-74 -122 0
-23 -124 0
-22 -124 0
-86 -124 0
-63 -124 0
-124 -142 0
-22 -23 0
-23 -86 0
-23 -63 0
-23 -142 0
-22 -86 0
-22 -63 0
-22 -142 0
-63 -86 0
-86 -142 0
-63 -142 0
-21 -145 0
-21 -154 0
-21 -43 0
-21 -157 0
-21 -40 0
-145 -154 0
-43 -145 0
-145 -157 0
-40 -145 0
-43 -154 0
-154 -157 0
-40 -154 0
-43 -157 0
-40 -43 0
-40 -157 0
-20 -150 0
-19 -20 0
-20 -184 0
-20 -162 0
-20 -189 0
-19 -150 0
-150 -184 0
-150 -162 0
-150 -189 0
-19 -184 0
-19 -162 0
-19 -189 0
-162 -184 0
-184 -189 0
-162 -189 0
-32 -110 0
-32 -79 0
-32 -124 0
-21 -32 0
-20 -32 0
-79 -110 0
-110 -124 0
-21 -110 0
-20 -110 0
-79 -124 0
-21 -79 0
-20 -79 0
-21 -124 0
-20 -124 0
-20 -21 0
-31 -148 0
-31 -77 0
-23 -31 0
-31 -145 0
-31 -150 0
-77 -148 0
-23 -148 0
-145 -148 0
-148 -150 0
-23 -77 0
-77 -145 0
-77 -150 0
-23 -145 0
-23 -150 0
-145 -150 0
-102 -119 0
-25 -119 0
-22 -119 0
-119 -154 0
-19 -119 0
-25 -102 0
-22 -102 0
-102 -154 0
-19 -102 0
-22 -25 0
-25 -154 0
-19 -25 0
-22 -154 0
-19 -22 0
-19 -154 0
-27 -29 0
-24 -29 0
-29 -86 0
-29 -43 0
-29 -184 0
-24 -27 0
-27 -86 0
-27 -43 0
-27 -184 0
-24 -86 0
-24 -43 0
-24 -184 0
-43 -86 0
-86 -184 0
-43 -184 0
-67 -160 0
-67 -74 0
-63 -67 0
-67 -157 0
-67 -162 0
-74 -160 0
-63 -160 0
-157 -160 0
-160 -162 0
-63 -74 0
-74 -157 0
-74 -162 0
-63 -157 0
-63 -162 0
-157 -162 0
-26 -28 0
-28 -122 0
-28 -142 0
-28 -40 0
-28 -189 0
-26 -122 0
-26 -142 0
-26 -40 0
-26 -189 0
-122 -142 0
-40 -122 0
-122 -189 0
-40 -142 0
-142 -189 0
-40 -189 0
-30 -66 0
-30 -114 0
-66 -114 0
-149 -161 0
-149 -165 0
-161 -165 0
-85 -175 0
-93 -175 0
-85 -93 0
-30 -149 0
-30 -175 0
-149 -175 0
-66 -161 0
-66 -85 0
-85 -161 0
-114 -165 0
-93 -114 0
-93 -165 0
-60 -125 0
-81 -125 0
-60 -81 0
-176 -178 0
-18 -176 0
-18 -178 0
-76 -100 0
-17 -76 0
-17 -100 0
-125 -176 0
-76 -125 0
-76 -176 0
-60 -178 0
-60 -100 0
-100 -178 0
-18 -81 0
-17 -81 0
-17 -18 0
-16 -62 0
-16 -116 0
-16 -82 0
-15 -16 0
-62 -116 0
-62 -82 0
-15 -62 0
-82 -116 0
-15 -116 0
-15 -82 0
-14 -133 0
-14 -181 0
-14 -108 0
-13 -14 0
-133 -181 0
-108 -133 0
-13 -133 0
-108 -181 0
-13 -181 0
-13 -108 0
-12 -99 0
-12 -166 0
-12 -171 0
-11 -12 0
-99 -166 0
-99 -171 0
-11 -99 0
-166 -171 0
-11 -166 0
-11 -171 0
-59 -172 0
-118 -172 0
-80 -172 0
-106 -172 0
-59 -118 0
-59 -80 0
-59 -106 0
-80 -118 0
-106 -118 0
-80 -106 0
-10 -164 0
-10 -168 0
-9 -10 0
-10 -129 0
-164 -168 0
-9 -164 0
-129 -164 0
-9 -168 0
-129 -168 0
-9 -129 0
-14 -16 0
-12 -16 0
-16 -172 0
-10 -16 0
-12 -14 0
-14 -172 0
-10 -14 0
-12 -172 0
-10 -12 0
-10 -172 0
-62 -133 0
-62 -99 0
-59 -62 0
-62 -164 0
-99 -133 0
-59 -133 0
-133 -164 0
-59 -99 0
-99 -164 0
-59 -164 0
-116 -181 0
-116 -166 0
-116 -118 0
-116 -168 0
-166 -181 0
-118 -181 0
-168 -181 0
-118 -166 0
-166 -168 0
-118 -168 0
-82 -108 0
-82 -171 0
-80 -82 0
-9 -82 0
-108 -171 0
-80 -108 0
-9 -108 0
-80 -171 0
-9 -171 0
-9 -80 0
-13 -15 0
-11 -15 0
-15 -106 0
-15 -129 0
-11 -13 0
-13 -106 0
-13 -129 0
-11 -106 0
-11 -129 0
-106 -129 0
-8 -127 0
-8 -69 0
-8 -131 0
-8 -92 0
-69 -127 0
-127 -131 0
-92 -127 0
-69 -131 0
-69 -92 0
-92 -131 0
-7 -75 0
-6 -75 0
-75 -98 0
-5 -75 0
-6 -7 0
-7 -98 0
-5 -7 0
-6 -98 0
-5 -6 0
-5 -98 0
-3 -4 0
-4 -72 0
-4 -61 0
-4 -117 0
-3 -72 0
-3 -61 0
-3 -117 0
-61 -72 0
-72 -117 0
-61 -117 0
-151 -155 0
-2 -151 0
-151 -163 0
-151 -167 0
-2 -155 0
-155 -163 0
-155 -167 0
-2 -163 0
-2 -167 0
-163 -167 0
-1 -177 0
-71 -177 0
-134 -177 0
-177 -182 0
-1 -71 0
-1 -134 0
-1 -182 0
-71 -134 0
-71 -182 0
-134 -182 0
-8 -75 0
-4 -8 0
-8 -151 0
-8 -177 0
-4 -75 0
-75 -151 0
-75 -177 0
-4 -151 0
-4 -177 0
-151 -177 0
-7 -127 0
-3 -127 0
-127 -155 0
-1 -127 0
-3 -7 0
-7 -155 0
-1 -7 0
-3 -155 0
-1 -3 0
-1 -155 0
-6 -69 0
-69 -72 0
-2 -69 0
-69 -71 0
-6 -72 0
-2 -6 0
-6 -71 0
-2 -72 0
-71 -72 0
-2 -71 0
-98 -131 0
-61 -131 0
-131 -163 0
-131 -134 0
-61 -98 0
-98 -163 0
-98 -134 0
-61 -163 0
-61 -134 0
-134 -163 0
-5 -92 0
-92 -117 0
-92 -167 0
-92 -182 0
-5 -117 0
-5 -167 0
-5 -182 0
-117 -167 0
-117 -182 0
-167 -182 0
